asp/input/in_30_15_7_2.lp
#const n = 30.
#const k = 15.
#const h = 7.
tile(1,7,9).
tile(2,11,6).
tile(3,5,6).
tile(4,6,11).
tile(5,15,14).
tile(6,7,11).
tile(7,13,10).
tile(8,14,5).
tile(9,7,7).
tile(10,10,3).
tile(11,8,4).
tile(12,2,6).
tile(13,3,11).
tile(14,2,6).
tile(15,10,6).
tile(16,8,11).
tile(17,15,2).
tile(18,15,14).
tile(19,9,15).
tile(20,4,13).
tile(21,6,5).
tile(22,1,3).
tile(23,11,15).
tile(24,12,14).
tile(25,9,2).
tile(26,12,1).
tile(27,8,14).
tile(28,2,1).
tile(29,10,1).
tile(30,6,15).
