minizinc/input/in_30_15_7_2.dzn
n = 30;
k = 15;
h = 7;
tiles = array2d(1..n, 1..2,
[ 7,9
, 11,6
, 5,6
, 6,11
, 15,14
, 7,11
, 13,10
, 14,5
, 7,7
, 10,3
, 8,4
, 2,6
, 3,11
, 2,6
, 10,6
, 8,11
, 15,2
, 15,14
, 9,15
, 4,13
, 6,5
, 1,3
, 11,15
, 12,14
, 9,2
, 12,1
, 8,14
, 2,1
, 10,1
, 6,15
]);